language Essence 1.3

letting bot_end be [1500, 1522, 1479, 1527, 1547, 78, 1, 1473, 77, 1525, 1499, 24, 1528; int(1..13)]
letting bot_start be [123, 4, 24, 74, 77, 1549, 1473, 25, 1499, 95, 78, 1533, 45; int(1..13)]
letting buffer_col be 2
letting buffer_row be 2
letting corridor_size be 1
letting n_shelves_col be 7
letting n_shelves_row be 29
letting shelf_col_size be 2
letting shelf_row_size be 1
